4595 74
3425 2873
3112 2514
3232 1289
4870 1104
312 404
192 1933
1970 211
2909 4207
708 902
2790 4760
4576 4033
3682 1196
3747 1104
3434 2974
3812 1823
4677 1943
156 2606
617 4677
4410 1326
4594 9
764 1537
1583 4686
2485 1647
54 745
1610 1813
3047 312
469 2853
3268 3498
3038 3811
4004 524
1260 1647
3351 1721
809 339
3710 3544
2126 1260
533 3065
1371 3305
4796 957
2550 4023
754 4290
1068 1592
884 377
727 681
4143 3462
368 1758
2891 4981
2063 2118
4475 387
1381 4089
